(set-logic QF_LIRA)

(declare-fun v!38 () Int)
(declare-fun v!37 () Int)
(declare-fun t!20 () Real)
(declare-fun t!19 () Real)
(declare-fun t!21 () Real)
(declare-fun t!22 () Real)
(declare-fun t!23 () Real)
(declare-fun t!24 () Real)
(declare-fun t!25 () Real)
(declare-fun t!26 () Real)
(declare-fun t!27 () Real)
(declare-fun t!28 () Real)
(declare-fun t!29 () Real)
(declare-fun t!30 () Real)
(declare-fun t!31 () Real)
(declare-fun t!32 () Real)
(declare-fun t!33 () Real)
(declare-fun t!34 () Real)
(declare-fun t!35 () Real)
(declare-fun t!3 () Real)
(declare-fun t!2 () Real)
(declare-fun t!4 () Real)
(declare-fun t!5 () Real)
(declare-fun t!6 () Real)
(declare-fun t!7 () Real)
(declare-fun t!8 () Real)
(declare-fun t!9 () Real)
(declare-fun t!10 () Real)
(declare-fun t!11 () Real)
(declare-fun t!12 () Real)
(declare-fun t!13 () Real)
(declare-fun t!14 () Real)
(declare-fun t!15 () Real)
(declare-fun t!16 () Real)
(declare-fun t!17 () Real)
(declare-fun t!18 () Real)
(declare-fun t!1 () Real)
(declare-fun t!0 () Real)
(declare-fun t!36 () Real)
(declare-fun t!37 () Real)
(declare-fun s!4 () Real)
(declare-fun s!7 () Real)
(declare-fun s!10 () Real)
(declare-fun s!13 () Real)
(declare-fun s!16 () Real)
(declare-fun s!20 () Real)
(declare-fun s!23 () Real)
(declare-fun s!26 () Real)
(declare-fun s!29 () Real)
(declare-fun s!32 () Real)
(declare-fun s!36 () Real)
(declare-fun s!3 () Real)
(declare-fun s!6 () Real)
(declare-fun s!9 () Real)
(declare-fun s!12 () Real)
(declare-fun s!15 () Real)
(declare-fun s!21 () Real)
(declare-fun s!24 () Real)
(declare-fun s!27 () Real)
(declare-fun s!30 () Real)
(declare-fun s!33 () Real)
(declare-fun s!37 () Real)
(declare-fun rf!4 () Real)
(declare-fun v!5 () Int)
(declare-fun v!21 () Int)
(declare-fun v!22 () Int)
(declare-fun v!24 () Int)
(declare-fun v!25 () Int)
(declare-fun v!27 () Int)
(declare-fun v!28 () Int)
(declare-fun v!30 () Int)
(declare-fun v!31 () Int)
(declare-fun v!33 () Int)
(declare-fun v!34 () Int)
(declare-fun rf!7 () Real)
(declare-fun v!8 () Int)
(declare-fun rf!10 () Real)
(declare-fun v!11 () Int)
(declare-fun rf!13 () Real)
(declare-fun v!14 () Int)
(declare-fun rf!16 () Real)
(declare-fun v!17 () Int)
(declare-fun rf!20 () Real)
(declare-fun rf!23 () Real)
(declare-fun rf!26 () Real)
(declare-fun rf!29 () Real)
(declare-fun rf!32 () Real)
(declare-fun rf!36 () Real)
(declare-fun rf!3 () Real)
(declare-fun v!4 () Int)
(declare-fun v!7 () Int)
(declare-fun v!10 () Int)
(declare-fun v!13 () Int)
(declare-fun v!16 () Int)
(declare-fun rf!6 () Real)
(declare-fun rf!9 () Real)
(declare-fun rf!12 () Real)
(declare-fun rf!15 () Real)
(declare-fun rf!21 () Real)
(declare-fun rf!24 () Real)
(declare-fun rf!27 () Real)
(declare-fun rf!30 () Real)
(declare-fun rf!33 () Real)
(declare-fun rf!37 () Real)
(assert (and true (or (< 144 v!38) (< 144 v!37))))
(assert (< 0 t!20))
(assert (< 0 t!19))
(assert (< 0 t!21))
(assert (< 0 t!22))
(assert (< 0 t!23))
(assert (< 0 t!24))
(assert (< 0 t!25))
(assert (< 0 t!26))
(assert (< 0 t!27))
(assert (< 0 t!28))
(assert (< 0 t!29))
(assert (< 0 t!30))
(assert (< 0 t!31))
(assert (< 0 t!32))
(assert (< 0 t!33))
(assert (< 0 t!34))
(assert (< 0 t!35))
(assert (< 0 t!3))
(assert (< 0 t!2))
(assert (< 0 t!4))
(assert (< 0 t!5))
(assert (< 0 t!6))
(assert (< 0 t!7))
(assert (< 0 t!8))
(assert (< 0 t!9))
(assert (< 0 t!10))
(assert (< 0 t!11))
(assert (< 0 t!12))
(assert (< 0 t!13))
(assert (< 0 t!14))
(assert (< 0 t!15))
(assert (< 0 t!16))
(assert (< 0 t!17))
(assert (< 0 t!18))
(assert (< 0 t!1))
(assert (< 0 t!0))
(assert (< 0 t!36))
(assert (< 0 t!37))
(assert (and (and (and (and (and (and (and (and (and (and (and (and (and (and (and (and (and (and (and (and (and (and (and (and (and (and (and (and (and (and (and (and (and (and (and (and (and true (< t!19 t!20)) (< t!20 t!21)) (< t!21 t!22)) (< t!22 t!23)) (< t!23 t!24)) (< t!24 t!25)) (< t!25 t!26)) (< t!26 t!27)) (< t!27 t!28)) (< t!28 t!29)) (< t!29 t!30)) (< t!30 t!31)) (< t!31 t!32)) (< t!32 t!33)) (< t!33 t!34)) (< t!34 t!35)) (< t!2 t!3)) (< t!3 t!4)) (< t!4 t!5)) (< t!5 t!6)) (< t!6 t!7)) (< t!7 t!8)) (< t!8 t!9)) (< t!9 t!10)) (< t!10 t!11)) (< t!11 t!12)) (< t!12 t!13)) (< t!13 t!14)) (< t!14 t!15)) (< t!15 t!16)) (< t!16 t!17)) (< t!17 t!18)) (< t!0 t!1)) (< t!1 t!2)) (< t!2 t!19)) (< t!19 t!36)) (< t!36 t!37)))
(assert (< 0 s!4))
(assert (< 0 s!7))
(assert (< 0 s!10))
(assert (< 0 s!13))
(assert (< 0 s!16))
(assert (< 0 s!20))
(assert (< 0 s!23))
(assert (< 0 s!26))
(assert (< 0 s!29))
(assert (< 0 s!32))
(assert (< 0 s!36))
(assert (< 0 s!3))
(assert (< 0 s!6))
(assert (< 0 s!9))
(assert (< 0 s!12))
(assert (< 0 s!15))
(assert (< 0 s!21))
(assert (< 0 s!24))
(assert (< 0 s!27))
(assert (< 0 s!30))
(assert (< 0 s!33))
(assert (< 0 s!37))
(assert (let ((_let_0 (= 1 rf!4))) (let ((_let_1 (and true true))) (let ((_let_2 (<= t!1 t!4))) (let ((_let_3 (= 22 rf!4))) (let ((_let_4 (<= t!22 t!4))) (let ((_let_5 (+ v!21 v!22))) (let ((_let_6 (= 25 rf!4))) (let ((_let_7 (<= t!25 t!4))) (let ((_let_8 (+ v!24 v!25))) (let ((_let_9 (= 28 rf!4))) (let ((_let_10 (<= t!28 t!4))) (let ((_let_11 (+ v!27 v!28))) (let ((_let_12 (= 31 rf!4))) (let ((_let_13 (<= t!31 t!4))) (let ((_let_14 (+ v!30 v!31))) (let ((_let_15 (= 34 rf!4))) (let ((_let_16 (<= t!34 t!4))) (let ((_let_17 (+ v!33 v!34))) (let ((_let_18 (= 1 rf!7))) (let ((_let_19 (<= t!1 t!7))) (let ((_let_20 (= 22 rf!7))) (let ((_let_21 (<= t!22 t!7))) (let ((_let_22 (= 25 rf!7))) (let ((_let_23 (<= t!25 t!7))) (let ((_let_24 (= 28 rf!7))) (let ((_let_25 (<= t!28 t!7))) (let ((_let_26 (= 31 rf!7))) (let ((_let_27 (<= t!31 t!7))) (let ((_let_28 (= 34 rf!7))) (let ((_let_29 (<= t!34 t!7))) (let ((_let_30 (= 1 rf!10))) (let ((_let_31 (<= t!1 t!10))) (let ((_let_32 (= 22 rf!10))) (let ((_let_33 (<= t!22 t!10))) (let ((_let_34 (= 25 rf!10))) (let ((_let_35 (<= t!25 t!10))) (let ((_let_36 (= 28 rf!10))) (let ((_let_37 (<= t!28 t!10))) (let ((_let_38 (= 31 rf!10))) (let ((_let_39 (<= t!31 t!10))) (let ((_let_40 (= 34 rf!10))) (let ((_let_41 (<= t!34 t!10))) (let ((_let_42 (= 1 rf!13))) (let ((_let_43 (<= t!1 t!13))) (let ((_let_44 (= 22 rf!13))) (let ((_let_45 (<= t!22 t!13))) (let ((_let_46 (= 25 rf!13))) (let ((_let_47 (<= t!25 t!13))) (let ((_let_48 (= 28 rf!13))) (let ((_let_49 (<= t!28 t!13))) (let ((_let_50 (= 31 rf!13))) (let ((_let_51 (<= t!31 t!13))) (let ((_let_52 (= 34 rf!13))) (let ((_let_53 (<= t!34 t!13))) (let ((_let_54 (= 1 rf!16))) (let ((_let_55 (<= t!1 t!16))) (let ((_let_56 (= 22 rf!16))) (let ((_let_57 (<= t!22 t!16))) (let ((_let_58 (= 25 rf!16))) (let ((_let_59 (<= t!25 t!16))) (let ((_let_60 (= 28 rf!16))) (let ((_let_61 (<= t!28 t!16))) (let ((_let_62 (= 31 rf!16))) (let ((_let_63 (<= t!31 t!16))) (let ((_let_64 (= 34 rf!16))) (let ((_let_65 (<= t!34 t!16))) (let ((_let_66 (= 1 rf!20))) (let ((_let_67 (<= t!1 t!20))) (let ((_let_68 (= 22 rf!20))) (let ((_let_69 (<= t!22 t!20))) (let ((_let_70 (= 25 rf!20))) (let ((_let_71 (<= t!25 t!20))) (let ((_let_72 (= 28 rf!20))) (let ((_let_73 (<= t!28 t!20))) (let ((_let_74 (= 31 rf!20))) (let ((_let_75 (<= t!31 t!20))) (let ((_let_76 (= 34 rf!20))) (let ((_let_77 (<= t!34 t!20))) (let ((_let_78 (= 1 rf!23))) (let ((_let_79 (<= t!1 t!23))) (let ((_let_80 (= 22 rf!23))) (let ((_let_81 (<= t!22 t!23))) (let ((_let_82 (= 25 rf!23))) (let ((_let_83 (<= t!25 t!23))) (let ((_let_84 (= 28 rf!23))) (let ((_let_85 (<= t!28 t!23))) (let ((_let_86 (= 31 rf!23))) (let ((_let_87 (<= t!31 t!23))) (let ((_let_88 (= 34 rf!23))) (let ((_let_89 (<= t!34 t!23))) (let ((_let_90 (= 1 rf!26))) (let ((_let_91 (<= t!1 t!26))) (let ((_let_92 (= 22 rf!26))) (let ((_let_93 (<= t!22 t!26))) (let ((_let_94 (= 25 rf!26))) (let ((_let_95 (<= t!25 t!26))) (let ((_let_96 (= 28 rf!26))) (let ((_let_97 (<= t!28 t!26))) (let ((_let_98 (= 31 rf!26))) (let ((_let_99 (<= t!31 t!26))) (let ((_let_100 (= 34 rf!26))) (let ((_let_101 (<= t!34 t!26))) (let ((_let_102 (= 1 rf!29))) (let ((_let_103 (<= t!1 t!29))) (let ((_let_104 (= 22 rf!29))) (let ((_let_105 (<= t!22 t!29))) (let ((_let_106 (= 25 rf!29))) (let ((_let_107 (<= t!25 t!29))) (let ((_let_108 (= 28 rf!29))) (let ((_let_109 (<= t!28 t!29))) (let ((_let_110 (= 31 rf!29))) (let ((_let_111 (<= t!31 t!29))) (let ((_let_112 (= 34 rf!29))) (let ((_let_113 (<= t!34 t!29))) (let ((_let_114 (= 1 rf!32))) (let ((_let_115 (<= t!1 t!32))) (let ((_let_116 (= 22 rf!32))) (let ((_let_117 (<= t!22 t!32))) (let ((_let_118 (= 25 rf!32))) (let ((_let_119 (<= t!25 t!32))) (let ((_let_120 (= 28 rf!32))) (let ((_let_121 (<= t!28 t!32))) (let ((_let_122 (= 31 rf!32))) (let ((_let_123 (<= t!31 t!32))) (let ((_let_124 (= 34 rf!32))) (let ((_let_125 (<= t!34 t!32))) (let ((_let_126 (= 1 rf!36))) (let ((_let_127 (<= t!1 t!36))) (let ((_let_128 (= 22 rf!36))) (let ((_let_129 (<= t!22 t!36))) (let ((_let_130 (= 25 rf!36))) (let ((_let_131 (<= t!25 t!36))) (let ((_let_132 (= 28 rf!36))) (let ((_let_133 (<= t!28 t!36))) (let ((_let_134 (= 31 rf!36))) (let ((_let_135 (<= t!31 t!36))) (let ((_let_136 (= 34 rf!36))) (let ((_let_137 (<= t!34 t!36))) (let ((_let_138 (= 0 rf!3))) (let ((_let_139 (<= t!0 t!3))) (let ((_let_140 (= 5 rf!3))) (let ((_let_141 (<= t!5 t!3))) (let ((_let_142 (+ v!4 v!5))) (let ((_let_143 (= 8 rf!3))) (let ((_let_144 (<= t!8 t!3))) (let ((_let_145 (+ v!7 v!8))) (let ((_let_146 (= 11 rf!3))) (let ((_let_147 (<= t!11 t!3))) (let ((_let_148 (+ v!10 v!11))) (let ((_let_149 (= 14 rf!3))) (let ((_let_150 (<= t!14 t!3))) (let ((_let_151 (+ v!13 v!14))) (let ((_let_152 (= 17 rf!3))) (let ((_let_153 (<= t!17 t!3))) (let ((_let_154 (+ v!16 v!17))) (let ((_let_155 (= 0 rf!6))) (let ((_let_156 (<= t!0 t!6))) (let ((_let_157 (= 5 rf!6))) (let ((_let_158 (<= t!5 t!6))) (let ((_let_159 (= 8 rf!6))) (let ((_let_160 (<= t!8 t!6))) (let ((_let_161 (= 11 rf!6))) (let ((_let_162 (<= t!11 t!6))) (let ((_let_163 (= 14 rf!6))) (let ((_let_164 (<= t!14 t!6))) (let ((_let_165 (= 17 rf!6))) (let ((_let_166 (<= t!17 t!6))) (let ((_let_167 (= 0 rf!9))) (let ((_let_168 (<= t!0 t!9))) (let ((_let_169 (= 5 rf!9))) (let ((_let_170 (<= t!5 t!9))) (let ((_let_171 (= 8 rf!9))) (let ((_let_172 (<= t!8 t!9))) (let ((_let_173 (= 11 rf!9))) (let ((_let_174 (<= t!11 t!9))) (let ((_let_175 (= 14 rf!9))) (let ((_let_176 (<= t!14 t!9))) (let ((_let_177 (= 17 rf!9))) (let ((_let_178 (<= t!17 t!9))) (let ((_let_179 (= 0 rf!12))) (let ((_let_180 (<= t!0 t!12))) (let ((_let_181 (= 5 rf!12))) (let ((_let_182 (<= t!5 t!12))) (let ((_let_183 (= 8 rf!12))) (let ((_let_184 (<= t!8 t!12))) (let ((_let_185 (= 11 rf!12))) (let ((_let_186 (<= t!11 t!12))) (let ((_let_187 (= 14 rf!12))) (let ((_let_188 (<= t!14 t!12))) (let ((_let_189 (= 17 rf!12))) (let ((_let_190 (<= t!17 t!12))) (let ((_let_191 (= 0 rf!15))) (let ((_let_192 (<= t!0 t!15))) (let ((_let_193 (= 5 rf!15))) (let ((_let_194 (<= t!5 t!15))) (let ((_let_195 (= 8 rf!15))) (let ((_let_196 (<= t!8 t!15))) (let ((_let_197 (= 11 rf!15))) (let ((_let_198 (<= t!11 t!15))) (let ((_let_199 (= 14 rf!15))) (let ((_let_200 (<= t!14 t!15))) (let ((_let_201 (= 17 rf!15))) (let ((_let_202 (<= t!17 t!15))) (let ((_let_203 (= 0 rf!21))) (let ((_let_204 (<= t!0 t!21))) (let ((_let_205 (= 5 rf!21))) (let ((_let_206 (<= t!5 t!21))) (let ((_let_207 (= 8 rf!21))) (let ((_let_208 (<= t!8 t!21))) (let ((_let_209 (= 11 rf!21))) (let ((_let_210 (<= t!11 t!21))) (let ((_let_211 (= 14 rf!21))) (let ((_let_212 (<= t!14 t!21))) (let ((_let_213 (= 17 rf!21))) (let ((_let_214 (<= t!17 t!21))) (let ((_let_215 (= 0 rf!24))) (let ((_let_216 (<= t!0 t!24))) (let ((_let_217 (= 5 rf!24))) (let ((_let_218 (<= t!5 t!24))) (let ((_let_219 (= 8 rf!24))) (let ((_let_220 (<= t!8 t!24))) (let ((_let_221 (= 11 rf!24))) (let ((_let_222 (<= t!11 t!24))) (let ((_let_223 (= 14 rf!24))) (let ((_let_224 (<= t!14 t!24))) (let ((_let_225 (= 17 rf!24))) (let ((_let_226 (<= t!17 t!24))) (let ((_let_227 (= 0 rf!27))) (let ((_let_228 (<= t!0 t!27))) (let ((_let_229 (= 5 rf!27))) (let ((_let_230 (<= t!5 t!27))) (let ((_let_231 (= 8 rf!27))) (let ((_let_232 (<= t!8 t!27))) (let ((_let_233 (= 11 rf!27))) (let ((_let_234 (<= t!11 t!27))) (let ((_let_235 (= 14 rf!27))) (let ((_let_236 (<= t!14 t!27))) (let ((_let_237 (= 17 rf!27))) (let ((_let_238 (<= t!17 t!27))) (let ((_let_239 (= 0 rf!30))) (let ((_let_240 (<= t!0 t!30))) (let ((_let_241 (= 5 rf!30))) (let ((_let_242 (<= t!5 t!30))) (let ((_let_243 (= 8 rf!30))) (let ((_let_244 (<= t!8 t!30))) (let ((_let_245 (= 11 rf!30))) (let ((_let_246 (<= t!11 t!30))) (let ((_let_247 (= 14 rf!30))) (let ((_let_248 (<= t!14 t!30))) (let ((_let_249 (= 17 rf!30))) (let ((_let_250 (<= t!17 t!30))) (let ((_let_251 (= 0 rf!33))) (let ((_let_252 (<= t!0 t!33))) (let ((_let_253 (= 5 rf!33))) (let ((_let_254 (<= t!5 t!33))) (let ((_let_255 (= 8 rf!33))) (let ((_let_256 (<= t!8 t!33))) (let ((_let_257 (= 11 rf!33))) (let ((_let_258 (<= t!11 t!33))) (let ((_let_259 (= 14 rf!33))) (let ((_let_260 (<= t!14 t!33))) (let ((_let_261 (= 17 rf!33))) (let ((_let_262 (<= t!17 t!33))) (let ((_let_263 (= 0 rf!37))) (let ((_let_264 (<= t!0 t!37))) (let ((_let_265 (= 5 rf!37))) (let ((_let_266 (<= t!5 t!37))) (let ((_let_267 (= 8 rf!37))) (let ((_let_268 (<= t!8 t!37))) (let ((_let_269 (= 11 rf!37))) (let ((_let_270 (<= t!11 t!37))) (let ((_let_271 (= 14 rf!37))) (let ((_let_272 (<= t!14 t!37))) (let ((_let_273 (= 17 rf!37))) (let ((_let_274 (<= t!17 t!37))) (and (and (and (and (and (and (and (and (and (and (and (and (and (and (and (and (and (and (and (and (and (and (and (and (and (and (and (and (and (and (and (and (and (and (and (and (and (and (and (and (and (and (and (and (and (and (and (and (and (and (and (and (and (and (and (and (and (and (and (and (and (and (and (and (and (and (and (and (and (and (and (and (and (and (and (and (and (and (and (and (and (and (and (and (and (and (and (and (and (and (and (and (and (and (and (and (and (and (and (and (and (and (and (and (and (and (and (and (and (and (and (and (and (and (and (and (and (and (and (and (and (and (and (and (and (and (and (and (and (and (and (and (and (and (and (and (and (and (and (and (and (and (and (and (and (and (and (and (and (and (and (and (and (and (and (and (and (and (and (and (and (and (and (and (and (and (and (and (and (and (and (and (and (and (and (and (and (and (and (and (and (and (and (and (and (and (and (and (and (and (and (and (and (and (and (and (and (and (and (and (and (and (and (and (and (and (and (and (and (and (and (and (and (and (and (and (and (and (and (and (and (and (and (and (and (and (and (and (and (and (and (and (and (and (and (and (and (and (and (and (and (and (and (and (and (and (and (and (and (and (and (and (and (and (and (and (and (and (and (and (and (and (and (and (and (and (and (and (and (and (and (and (and (and (and (and (and (and (and (and (and (and (and (and (and (and true (=> _let_0 (and (and (and _let_1 _let_2) (= 1 v!5)) (= s!4 t!1)))) (=> (and _let_2 true) (<= t!1 s!4))) (=> _let_3 (and (and (and _let_1 _let_4) (= _let_5 v!5)) (= s!4 t!22)))) (=> (and _let_4 true) (<= t!22 s!4))) (=> _let_6 (and (and (and _let_1 _let_7) (= _let_8 v!5)) (= s!4 t!25)))) (=> (and _let_7 true) (<= t!25 s!4))) (=> _let_9 (and (and (and _let_1 _let_10) (= _let_11 v!5)) (= s!4 t!28)))) (=> (and _let_10 true) (<= t!28 s!4))) (=> _let_12 (and (and (and _let_1 _let_13) (= _let_14 v!5)) (= s!4 t!31)))) (=> (and _let_13 true) (<= t!31 s!4))) (=> _let_15 (and (and (and _let_1 _let_16) (= _let_17 v!5)) (= s!4 t!34)))) (=> (and _let_16 true) (<= t!34 s!4))) (=> true (or _let_15 (or _let_12 (or _let_9 (or _let_6 (or _let_3 (or _let_0 false)))))))) (=> _let_18 (and (and (and _let_1 _let_19) (= 1 v!8)) (= s!7 t!1)))) (=> (and _let_19 true) (<= t!1 s!7))) (=> _let_20 (and (and (and _let_1 _let_21) (= _let_5 v!8)) (= s!7 t!22)))) (=> (and _let_21 true) (<= t!22 s!7))) (=> _let_22 (and (and (and _let_1 _let_23) (= _let_8 v!8)) (= s!7 t!25)))) (=> (and _let_23 true) (<= t!25 s!7))) (=> _let_24 (and (and (and _let_1 _let_25) (= _let_11 v!8)) (= s!7 t!28)))) (=> (and _let_25 true) (<= t!28 s!7))) (=> _let_26 (and (and (and _let_1 _let_27) (= _let_14 v!8)) (= s!7 t!31)))) (=> (and _let_27 true) (<= t!31 s!7))) (=> _let_28 (and (and (and _let_1 _let_29) (= _let_17 v!8)) (= s!7 t!34)))) (=> (and _let_29 true) (<= t!34 s!7))) (=> true (or _let_28 (or _let_26 (or _let_24 (or _let_22 (or _let_20 (or _let_18 false)))))))) (=> _let_30 (and (and (and _let_1 _let_31) (= 1 v!11)) (= s!10 t!1)))) (=> (and _let_31 true) (<= t!1 s!10))) (=> _let_32 (and (and (and _let_1 _let_33) (= _let_5 v!11)) (= s!10 t!22)))) (=> (and _let_33 true) (<= t!22 s!10))) (=> _let_34 (and (and (and _let_1 _let_35) (= _let_8 v!11)) (= s!10 t!25)))) (=> (and _let_35 true) (<= t!25 s!10))) (=> _let_36 (and (and (and _let_1 _let_37) (= _let_11 v!11)) (= s!10 t!28)))) (=> (and _let_37 true) (<= t!28 s!10))) (=> _let_38 (and (and (and _let_1 _let_39) (= _let_14 v!11)) (= s!10 t!31)))) (=> (and _let_39 true) (<= t!31 s!10))) (=> _let_40 (and (and (and _let_1 _let_41) (= _let_17 v!11)) (= s!10 t!34)))) (=> (and _let_41 true) (<= t!34 s!10))) (=> true (or _let_40 (or _let_38 (or _let_36 (or _let_34 (or _let_32 (or _let_30 false)))))))) (=> _let_42 (and (and (and _let_1 _let_43) (= 1 v!14)) (= s!13 t!1)))) (=> (and _let_43 true) (<= t!1 s!13))) (=> _let_44 (and (and (and _let_1 _let_45) (= _let_5 v!14)) (= s!13 t!22)))) (=> (and _let_45 true) (<= t!22 s!13))) (=> _let_46 (and (and (and _let_1 _let_47) (= _let_8 v!14)) (= s!13 t!25)))) (=> (and _let_47 true) (<= t!25 s!13))) (=> _let_48 (and (and (and _let_1 _let_49) (= _let_11 v!14)) (= s!13 t!28)))) (=> (and _let_49 true) (<= t!28 s!13))) (=> _let_50 (and (and (and _let_1 _let_51) (= _let_14 v!14)) (= s!13 t!31)))) (=> (and _let_51 true) (<= t!31 s!13))) (=> _let_52 (and (and (and _let_1 _let_53) (= _let_17 v!14)) (= s!13 t!34)))) (=> (and _let_53 true) (<= t!34 s!13))) (=> true (or _let_52 (or _let_50 (or _let_48 (or _let_46 (or _let_44 (or _let_42 false)))))))) (=> _let_54 (and (and (and _let_1 _let_55) (= 1 v!17)) (= s!16 t!1)))) (=> (and _let_55 true) (<= t!1 s!16))) (=> _let_56 (and (and (and _let_1 _let_57) (= _let_5 v!17)) (= s!16 t!22)))) (=> (and _let_57 true) (<= t!22 s!16))) (=> _let_58 (and (and (and _let_1 _let_59) (= _let_8 v!17)) (= s!16 t!25)))) (=> (and _let_59 true) (<= t!25 s!16))) (=> _let_60 (and (and (and _let_1 _let_61) (= _let_11 v!17)) (= s!16 t!28)))) (=> (and _let_61 true) (<= t!28 s!16))) (=> _let_62 (and (and (and _let_1 _let_63) (= _let_14 v!17)) (= s!16 t!31)))) (=> (and _let_63 true) (<= t!31 s!16))) (=> _let_64 (and (and (and _let_1 _let_65) (= _let_17 v!17)) (= s!16 t!34)))) (=> (and _let_65 true) (<= t!34 s!16))) (=> true (or _let_64 (or _let_62 (or _let_60 (or _let_58 (or _let_56 (or _let_54 false)))))))) (=> _let_66 (and (and (and _let_1 _let_67) (= 1 v!21)) (= s!20 t!1)))) (=> (and _let_67 true) (<= t!1 s!20))) (=> _let_68 (and (and (and _let_1 _let_69) (= _let_5 v!21)) (= s!20 t!22)))) (=> (and _let_69 true) (<= t!22 s!20))) (=> _let_70 (and (and (and _let_1 _let_71) (= _let_8 v!21)) (= s!20 t!25)))) (=> (and _let_71 true) (<= t!25 s!20))) (=> _let_72 (and (and (and _let_1 _let_73) (= _let_11 v!21)) (= s!20 t!28)))) (=> (and _let_73 true) (<= t!28 s!20))) (=> _let_74 (and (and (and _let_1 _let_75) (= _let_14 v!21)) (= s!20 t!31)))) (=> (and _let_75 true) (<= t!31 s!20))) (=> _let_76 (and (and (and _let_1 _let_77) (= _let_17 v!21)) (= s!20 t!34)))) (=> (and _let_77 true) (<= t!34 s!20))) (=> true (or _let_76 (or _let_74 (or _let_72 (or _let_70 (or _let_68 (or _let_66 false)))))))) (=> _let_78 (and (and (and _let_1 _let_79) (= 1 v!24)) (= s!23 t!1)))) (=> (and _let_79 true) (<= t!1 s!23))) (=> _let_80 (and (and (and _let_1 _let_81) (= _let_5 v!24)) (= s!23 t!22)))) (=> (and _let_81 true) (<= t!22 s!23))) (=> _let_82 (and (and (and _let_1 _let_83) (= _let_8 v!24)) (= s!23 t!25)))) (=> (and _let_83 true) (<= t!25 s!23))) (=> _let_84 (and (and (and _let_1 _let_85) (= _let_11 v!24)) (= s!23 t!28)))) (=> (and _let_85 true) (<= t!28 s!23))) (=> _let_86 (and (and (and _let_1 _let_87) (= _let_14 v!24)) (= s!23 t!31)))) (=> (and _let_87 true) (<= t!31 s!23))) (=> _let_88 (and (and (and _let_1 _let_89) (= _let_17 v!24)) (= s!23 t!34)))) (=> (and _let_89 true) (<= t!34 s!23))) (=> true (or _let_88 (or _let_86 (or _let_84 (or _let_82 (or _let_80 (or _let_78 false)))))))) (=> _let_90 (and (and (and _let_1 _let_91) (= 1 v!27)) (= s!26 t!1)))) (=> (and _let_91 true) (<= t!1 s!26))) (=> _let_92 (and (and (and _let_1 _let_93) (= _let_5 v!27)) (= s!26 t!22)))) (=> (and _let_93 true) (<= t!22 s!26))) (=> _let_94 (and (and (and _let_1 _let_95) (= _let_8 v!27)) (= s!26 t!25)))) (=> (and _let_95 true) (<= t!25 s!26))) (=> _let_96 (and (and (and _let_1 _let_97) (= _let_11 v!27)) (= s!26 t!28)))) (=> (and _let_97 true) (<= t!28 s!26))) (=> _let_98 (and (and (and _let_1 _let_99) (= _let_14 v!27)) (= s!26 t!31)))) (=> (and _let_99 true) (<= t!31 s!26))) (=> _let_100 (and (and (and _let_1 _let_101) (= _let_17 v!27)) (= s!26 t!34)))) (=> (and _let_101 true) (<= t!34 s!26))) (=> true (or _let_100 (or _let_98 (or _let_96 (or _let_94 (or _let_92 (or _let_90 false)))))))) (=> _let_102 (and (and (and _let_1 _let_103) (= 1 v!30)) (= s!29 t!1)))) (=> (and _let_103 true) (<= t!1 s!29))) (=> _let_104 (and (and (and _let_1 _let_105) (= _let_5 v!30)) (= s!29 t!22)))) (=> (and _let_105 true) (<= t!22 s!29))) (=> _let_106 (and (and (and _let_1 _let_107) (= _let_8 v!30)) (= s!29 t!25)))) (=> (and _let_107 true) (<= t!25 s!29))) (=> _let_108 (and (and (and _let_1 _let_109) (= _let_11 v!30)) (= s!29 t!28)))) (=> (and _let_109 true) (<= t!28 s!29))) (=> _let_110 (and (and (and _let_1 _let_111) (= _let_14 v!30)) (= s!29 t!31)))) (=> (and _let_111 true) (<= t!31 s!29))) (=> _let_112 (and (and (and _let_1 _let_113) (= _let_17 v!30)) (= s!29 t!34)))) (=> (and _let_113 true) (<= t!34 s!29))) (=> true (or _let_112 (or _let_110 (or _let_108 (or _let_106 (or _let_104 (or _let_102 false)))))))) (=> _let_114 (and (and (and _let_1 _let_115) (= 1 v!33)) (= s!32 t!1)))) (=> (and _let_115 true) (<= t!1 s!32))) (=> _let_116 (and (and (and _let_1 _let_117) (= _let_5 v!33)) (= s!32 t!22)))) (=> (and _let_117 true) (<= t!22 s!32))) (=> _let_118 (and (and (and _let_1 _let_119) (= _let_8 v!33)) (= s!32 t!25)))) (=> (and _let_119 true) (<= t!25 s!32))) (=> _let_120 (and (and (and _let_1 _let_121) (= _let_11 v!33)) (= s!32 t!28)))) (=> (and _let_121 true) (<= t!28 s!32))) (=> _let_122 (and (and (and _let_1 _let_123) (= _let_14 v!33)) (= s!32 t!31)))) (=> (and _let_123 true) (<= t!31 s!32))) (=> _let_124 (and (and (and _let_1 _let_125) (= _let_17 v!33)) (= s!32 t!34)))) (=> (and _let_125 true) (<= t!34 s!32))) (=> true (or _let_124 (or _let_122 (or _let_120 (or _let_118 (or _let_116 (or _let_114 false)))))))) (=> _let_126 (and (and (and _let_1 _let_127) (= 1 v!37)) (= s!36 t!1)))) (=> (and _let_127 true) (<= t!1 s!36))) (=> _let_128 (and (and (and _let_1 _let_129) (= _let_5 v!37)) (= s!36 t!22)))) (=> (and _let_129 true) (<= t!22 s!36))) (=> _let_130 (and (and (and _let_1 _let_131) (= _let_8 v!37)) (= s!36 t!25)))) (=> (and _let_131 true) (<= t!25 s!36))) (=> _let_132 (and (and (and _let_1 _let_133) (= _let_11 v!37)) (= s!36 t!28)))) (=> (and _let_133 true) (<= t!28 s!36))) (=> _let_134 (and (and (and _let_1 _let_135) (= _let_14 v!37)) (= s!36 t!31)))) (=> (and _let_135 true) (<= t!31 s!36))) (=> _let_136 (and (and (and _let_1 _let_137) (= _let_17 v!37)) (= s!36 t!34)))) (=> (and _let_137 true) (<= t!34 s!36))) (=> true (or _let_136 (or _let_134 (or _let_132 (or _let_130 (or _let_128 (or _let_126 false)))))))) (=> _let_138 (and (and (and _let_1 _let_139) (= 1 v!4)) (= s!3 t!0)))) (=> (and _let_139 true) (<= t!0 s!3))) (=> _let_140 (and (and (and _let_1 _let_141) (= _let_142 v!4)) (= s!3 t!5)))) (=> (and _let_141 true) (<= t!5 s!3))) (=> _let_143 (and (and (and _let_1 _let_144) (= _let_145 v!4)) (= s!3 t!8)))) (=> (and _let_144 true) (<= t!8 s!3))) (=> _let_146 (and (and (and _let_1 _let_147) (= _let_148 v!4)) (= s!3 t!11)))) (=> (and _let_147 true) (<= t!11 s!3))) (=> _let_149 (and (and (and _let_1 _let_150) (= _let_151 v!4)) (= s!3 t!14)))) (=> (and _let_150 true) (<= t!14 s!3))) (=> _let_152 (and (and (and _let_1 _let_153) (= _let_154 v!4)) (= s!3 t!17)))) (=> (and _let_153 true) (<= t!17 s!3))) (=> true (or _let_152 (or _let_149 (or _let_146 (or _let_143 (or _let_140 (or _let_138 false)))))))) (=> _let_155 (and (and (and _let_1 _let_156) (= 1 v!7)) (= s!6 t!0)))) (=> (and _let_156 true) (<= t!0 s!6))) (=> _let_157 (and (and (and _let_1 _let_158) (= _let_142 v!7)) (= s!6 t!5)))) (=> (and _let_158 true) (<= t!5 s!6))) (=> _let_159 (and (and (and _let_1 _let_160) (= _let_145 v!7)) (= s!6 t!8)))) (=> (and _let_160 true) (<= t!8 s!6))) (=> _let_161 (and (and (and _let_1 _let_162) (= _let_148 v!7)) (= s!6 t!11)))) (=> (and _let_162 true) (<= t!11 s!6))) (=> _let_163 (and (and (and _let_1 _let_164) (= _let_151 v!7)) (= s!6 t!14)))) (=> (and _let_164 true) (<= t!14 s!6))) (=> _let_165 (and (and (and _let_1 _let_166) (= _let_154 v!7)) (= s!6 t!17)))) (=> (and _let_166 true) (<= t!17 s!6))) (=> true (or _let_165 (or _let_163 (or _let_161 (or _let_159 (or _let_157 (or _let_155 false)))))))) (=> _let_167 (and (and (and _let_1 _let_168) (= 1 v!10)) (= s!9 t!0)))) (=> (and _let_168 true) (<= t!0 s!9))) (=> _let_169 (and (and (and _let_1 _let_170) (= _let_142 v!10)) (= s!9 t!5)))) (=> (and _let_170 true) (<= t!5 s!9))) (=> _let_171 (and (and (and _let_1 _let_172) (= _let_145 v!10)) (= s!9 t!8)))) (=> (and _let_172 true) (<= t!8 s!9))) (=> _let_173 (and (and (and _let_1 _let_174) (= _let_148 v!10)) (= s!9 t!11)))) (=> (and _let_174 true) (<= t!11 s!9))) (=> _let_175 (and (and (and _let_1 _let_176) (= _let_151 v!10)) (= s!9 t!14)))) (=> (and _let_176 true) (<= t!14 s!9))) (=> _let_177 (and (and (and _let_1 _let_178) (= _let_154 v!10)) (= s!9 t!17)))) (=> (and _let_178 true) (<= t!17 s!9))) (=> true (or _let_177 (or _let_175 (or _let_173 (or _let_171 (or _let_169 (or _let_167 false)))))))) (=> _let_179 (and (and (and _let_1 _let_180) (= 1 v!13)) (= s!12 t!0)))) (=> (and _let_180 true) (<= t!0 s!12))) (=> _let_181 (and (and (and _let_1 _let_182) (= _let_142 v!13)) (= s!12 t!5)))) (=> (and _let_182 true) (<= t!5 s!12))) (=> _let_183 (and (and (and _let_1 _let_184) (= _let_145 v!13)) (= s!12 t!8)))) (=> (and _let_184 true) (<= t!8 s!12))) (=> _let_185 (and (and (and _let_1 _let_186) (= _let_148 v!13)) (= s!12 t!11)))) (=> (and _let_186 true) (<= t!11 s!12))) (=> _let_187 (and (and (and _let_1 _let_188) (= _let_151 v!13)) (= s!12 t!14)))) (=> (and _let_188 true) (<= t!14 s!12))) (=> _let_189 (and (and (and _let_1 _let_190) (= _let_154 v!13)) (= s!12 t!17)))) (=> (and _let_190 true) (<= t!17 s!12))) (=> true (or _let_189 (or _let_187 (or _let_185 (or _let_183 (or _let_181 (or _let_179 false)))))))) (=> _let_191 (and (and (and _let_1 _let_192) (= 1 v!16)) (= s!15 t!0)))) (=> (and _let_192 true) (<= t!0 s!15))) (=> _let_193 (and (and (and _let_1 _let_194) (= _let_142 v!16)) (= s!15 t!5)))) (=> (and _let_194 true) (<= t!5 s!15))) (=> _let_195 (and (and (and _let_1 _let_196) (= _let_145 v!16)) (= s!15 t!8)))) (=> (and _let_196 true) (<= t!8 s!15))) (=> _let_197 (and (and (and _let_1 _let_198) (= _let_148 v!16)) (= s!15 t!11)))) (=> (and _let_198 true) (<= t!11 s!15))) (=> _let_199 (and (and (and _let_1 _let_200) (= _let_151 v!16)) (= s!15 t!14)))) (=> (and _let_200 true) (<= t!14 s!15))) (=> _let_201 (and (and (and _let_1 _let_202) (= _let_154 v!16)) (= s!15 t!17)))) (=> (and _let_202 true) (<= t!17 s!15))) (=> true (or _let_201 (or _let_199 (or _let_197 (or _let_195 (or _let_193 (or _let_191 false)))))))) (=> _let_203 (and (and (and _let_1 _let_204) (= 1 v!22)) (= s!21 t!0)))) (=> (and _let_204 true) (<= t!0 s!21))) (=> _let_205 (and (and (and _let_1 _let_206) (= _let_142 v!22)) (= s!21 t!5)))) (=> (and _let_206 true) (<= t!5 s!21))) (=> _let_207 (and (and (and _let_1 _let_208) (= _let_145 v!22)) (= s!21 t!8)))) (=> (and _let_208 true) (<= t!8 s!21))) (=> _let_209 (and (and (and _let_1 _let_210) (= _let_148 v!22)) (= s!21 t!11)))) (=> (and _let_210 true) (<= t!11 s!21))) (=> _let_211 (and (and (and _let_1 _let_212) (= _let_151 v!22)) (= s!21 t!14)))) (=> (and _let_212 true) (<= t!14 s!21))) (=> _let_213 (and (and (and _let_1 _let_214) (= _let_154 v!22)) (= s!21 t!17)))) (=> (and _let_214 true) (<= t!17 s!21))) (=> true (or _let_213 (or _let_211 (or _let_209 (or _let_207 (or _let_205 (or _let_203 false)))))))) (=> _let_215 (and (and (and _let_1 _let_216) (= 1 v!25)) (= s!24 t!0)))) (=> (and _let_216 true) (<= t!0 s!24))) (=> _let_217 (and (and (and _let_1 _let_218) (= _let_142 v!25)) (= s!24 t!5)))) (=> (and _let_218 true) (<= t!5 s!24))) (=> _let_219 (and (and (and _let_1 _let_220) (= _let_145 v!25)) (= s!24 t!8)))) (=> (and _let_220 true) (<= t!8 s!24))) (=> _let_221 (and (and (and _let_1 _let_222) (= _let_148 v!25)) (= s!24 t!11)))) (=> (and _let_222 true) (<= t!11 s!24))) (=> _let_223 (and (and (and _let_1 _let_224) (= _let_151 v!25)) (= s!24 t!14)))) (=> (and _let_224 true) (<= t!14 s!24))) (=> _let_225 (and (and (and _let_1 _let_226) (= _let_154 v!25)) (= s!24 t!17)))) (=> (and _let_226 true) (<= t!17 s!24))) (=> true (or _let_225 (or _let_223 (or _let_221 (or _let_219 (or _let_217 (or _let_215 false)))))))) (=> _let_227 (and (and (and _let_1 _let_228) (= 1 v!28)) (= s!27 t!0)))) (=> (and _let_228 true) (<= t!0 s!27))) (=> _let_229 (and (and (and _let_1 _let_230) (= _let_142 v!28)) (= s!27 t!5)))) (=> (and _let_230 true) (<= t!5 s!27))) (=> _let_231 (and (and (and _let_1 _let_232) (= _let_145 v!28)) (= s!27 t!8)))) (=> (and _let_232 true) (<= t!8 s!27))) (=> _let_233 (and (and (and _let_1 _let_234) (= _let_148 v!28)) (= s!27 t!11)))) (=> (and _let_234 true) (<= t!11 s!27))) (=> _let_235 (and (and (and _let_1 _let_236) (= _let_151 v!28)) (= s!27 t!14)))) (=> (and _let_236 true) (<= t!14 s!27))) (=> _let_237 (and (and (and _let_1 _let_238) (= _let_154 v!28)) (= s!27 t!17)))) (=> (and _let_238 true) (<= t!17 s!27))) (=> true (or _let_237 (or _let_235 (or _let_233 (or _let_231 (or _let_229 (or _let_227 false)))))))) (=> _let_239 (and (and (and _let_1 _let_240) (= 1 v!31)) (= s!30 t!0)))) (=> (and _let_240 true) (<= t!0 s!30))) (=> _let_241 (and (and (and _let_1 _let_242) (= _let_142 v!31)) (= s!30 t!5)))) (=> (and _let_242 true) (<= t!5 s!30))) (=> _let_243 (and (and (and _let_1 _let_244) (= _let_145 v!31)) (= s!30 t!8)))) (=> (and _let_244 true) (<= t!8 s!30))) (=> _let_245 (and (and (and _let_1 _let_246) (= _let_148 v!31)) (= s!30 t!11)))) (=> (and _let_246 true) (<= t!11 s!30))) (=> _let_247 (and (and (and _let_1 _let_248) (= _let_151 v!31)) (= s!30 t!14)))) (=> (and _let_248 true) (<= t!14 s!30))) (=> _let_249 (and (and (and _let_1 _let_250) (= _let_154 v!31)) (= s!30 t!17)))) (=> (and _let_250 true) (<= t!17 s!30))) (=> true (or _let_249 (or _let_247 (or _let_245 (or _let_243 (or _let_241 (or _let_239 false)))))))) (=> _let_251 (and (and (and _let_1 _let_252) (= 1 v!34)) (= s!33 t!0)))) (=> (and _let_252 true) (<= t!0 s!33))) (=> _let_253 (and (and (and _let_1 _let_254) (= _let_142 v!34)) (= s!33 t!5)))) (=> (and _let_254 true) (<= t!5 s!33))) (=> _let_255 (and (and (and _let_1 _let_256) (= _let_145 v!34)) (= s!33 t!8)))) (=> (and _let_256 true) (<= t!8 s!33))) (=> _let_257 (and (and (and _let_1 _let_258) (= _let_148 v!34)) (= s!33 t!11)))) (=> (and _let_258 true) (<= t!11 s!33))) (=> _let_259 (and (and (and _let_1 _let_260) (= _let_151 v!34)) (= s!33 t!14)))) (=> (and _let_260 true) (<= t!14 s!33))) (=> _let_261 (and (and (and _let_1 _let_262) (= _let_154 v!34)) (= s!33 t!17)))) (=> (and _let_262 true) (<= t!17 s!33))) (=> true (or _let_261 (or _let_259 (or _let_257 (or _let_255 (or _let_253 (or _let_251 false)))))))) (=> _let_263 (and (and (and _let_1 _let_264) (= 1 v!38)) (= s!37 t!0)))) (=> (and _let_264 true) (<= t!0 s!37))) (=> _let_265 (and (and (and _let_1 _let_266) (= _let_142 v!38)) (= s!37 t!5)))) (=> (and _let_266 true) (<= t!5 s!37))) (=> _let_267 (and (and (and _let_1 _let_268) (= _let_145 v!38)) (= s!37 t!8)))) (=> (and _let_268 true) (<= t!8 s!37))) (=> _let_269 (and (and (and _let_1 _let_270) (= _let_148 v!38)) (= s!37 t!11)))) (=> (and _let_270 true) (<= t!11 s!37))) (=> _let_271 (and (and (and _let_1 _let_272) (= _let_151 v!38)) (= s!37 t!14)))) (=> (and _let_272 true) (<= t!14 s!37))) (=> _let_273 (and (and (and _let_1 _let_274) (= _let_154 v!38)) (= s!37 t!17)))) (=> (and _let_274 true) (<= t!17 s!37))) (=> true (or _let_273 (or _let_271 (or _let_269 (or _let_267 (or _let_265 (or _let_263 false))))))))))))))))))))))))))))))))))))))))))))))))))))))))))))))))))))))))))))))))))))))))))))))))))))))))))))))))))))))))))))))))))))))))))))))))))))))))))))))))))))))))))))))))))))))))))))))))))))))))))))))))))))))))))))))))))))))))))))))))))))))))))))))))))))))))))))))))))))))))))))
(assert (and (and true (distinct t!1 t!22 t!25 t!28 t!31 t!34)) (distinct t!0 t!5 t!8 t!11 t!14 t!17)))
(check-sat)

